data/solutions/recovery/wellformed/intermediate/binding/wellformed_intermediate_instance73/53.sol
Elapsed time: 0.06
Upper bound: 4582.0
Planning weighted value: 214584177.0
C[0]=4582.0
C[1]=4536.0
C[2]=4395.0
C[3]=4299.0
C[4]=4182.0
C[5]=4107.0
C[6]=4034.0
C[7]=3823.0
C[8]=3555.0
C[9]=3289.0
C[10]=3185.0
C[11]=3181.0
C[12]=2828.0
C[13]=2540.0
C[14]=2026.0
C[15]=0.0
y[0]=0
y[1]=5
y[2]=1
y[3]=3
y[4]=9
y[5]=6
y[6]=0
y[7]=4
y[8]=10
y[9]=14
y[10]=6
y[11]=10
y[12]=8
y[13]=7
y[14]=3
y[15]=11
y[16]=0
y[17]=5
y[18]=9
y[19]=5
y[20]=4
y[21]=12
y[22]=4
y[23]=6
y[24]=7
y[25]=0
y[26]=3
y[27]=4
y[28]=7
y[29]=9
y[30]=2
y[31]=3
y[32]=2
y[33]=0
y[34]=6
y[35]=7
y[36]=11
y[37]=0
y[38]=0
y[39]=0
y[40]=0
y[41]=10
y[42]=3
y[43]=3
y[44]=11
y[45]=1
y[46]=4
y[47]=0
y[48]=12
y[49]=11
y[50]=2
y[51]=6
y[52]=6
y[53]=14
y[54]=7
y[55]=9
y[56]=8
y[57]=10
y[58]=9
y[59]=0
y[60]=0
y[61]=2
y[62]=6
y[63]=10
y[64]=13
y[65]=5
y[66]=3
y[67]=8
y[68]=0
y[69]=8
y[70]=13
y[71]=13
y[72]=12
y[73]=1
y[74]=0
y[75]=13
y[76]=10
y[77]=14
y[78]=0
y[79]=7
y[80]=4
y[81]=7
y[82]=0
y[83]=14
y[84]=13
y[85]=4
y[86]=12
y[87]=14
y[88]=1
y[89]=10
y[90]=11
y[91]=0
y[92]=12
y[93]=3
y[94]=0
y[95]=1
y[96]=4
y[97]=5
y[98]=8
y[99]=6
y[100]=10
y[101]=8
y[102]=5
y[103]=9
y[104]=7
y[105]=1
y[106]=6
y[107]=2
