data/solutions/recovery/wellformed/intermediate/binding/wellformed_intermediate_instance73/53.log

Log started (V12.6.3.0) Fri Apr 20 17:50:34 2018

New value for default parallel thread count: 1

Problem '/tmp/tmpu0i_6C.pyomo.lp' read.
Read time = 0.03 sec. (2.14 ticks)

Problem name         : /tmp/tmpu0i_6C.pyomo.lp
Objective sense      : Minimize
Variables            :    1746  [Nneg: 1,  Binary: 1728,  General Integer: 17]
Objective nonzeros   :       1
Linear constraints   :     250  [Less: 124,  Equal: 126]
  Nonzeros           :  155797
  RHS nonzeros       :     109

Variables            : Min LB: 0.000000         Max UB: 1.000000       
Objective nonzeros   : Min   : 1.000000         Max   : 1.000000       
Linear constraints   :
  Nonzeros           : Min   : 1.000000         Max   : 1715.000       
  RHS nonzeros       : Min   : 1.000000         Max   : 1.000000       
Tried aggregator 2 times.
MIP Presolve eliminated 206 rows and 1520 columns.
Aggregator did 15 substitutions.
Reduced MIP has 29 rows, 211 columns, and 435 nonzeros.
Reduced MIP has 210 binaries, 1 generals, 0 SOSs, and 0 indicators.
Presolve time = 0.01 sec. (9.76 ticks)
Found incumbent of value 16875.000000 after 0.01 sec. (13.50 ticks)
Probing time = 0.00 sec. (0.26 ticks)
Tried aggregator 1 time.
Reduced MIP has 29 rows, 211 columns, and 435 nonzeros.
Reduced MIP has 210 binaries, 1 generals, 0 SOSs, and 0 indicators.
Presolve time = 0.00 sec. (0.36 ticks)
Probing time = 0.00 sec. (0.26 ticks)
Clique table members: 14.
MIP emphasis: balance optimality and feasibility.
MIP search method: dynamic search.
Parallel mode: none, using 1 thread.
Root relaxation solution time = 0.00 sec. (0.20 ticks)

        Nodes                                         Cuts/
   Node  Left     Objective  IInf  Best Integer    Best Bound    ItCnt     Gap

*     0+    0                        16875.0000     4582.0000            72.85%
      0     0     4582.0000    12    16875.0000     4582.0000       26   72.85%
*     0+    0                         5336.0000     4582.0000            14.13%
      0     0     4582.0000     5     5336.0000       Cuts: 6       30   14.13%
*     0+    0                         4778.0000     4582.0000             4.10%
      0     0     4582.0000     3     4778.0000       Cuts: 9       37    4.10%
*     0+    0                         4694.0000     4582.0000             2.39%
*     0     0      integral     0     4582.0000    MIRcuts: 2       39    0.00%
      0     0        cutoff           4582.0000     4582.0000       39    0.00%
Elapsed time = 0.02 sec. (17.36 ticks, tree = 0.01 MB, solutions = 5)

Mixed integer rounding cuts applied:  4
Zero-half cuts applied:  4
Gomory fractional cuts applied:  3

Root node processing (before b&c):
  Real time             =    0.02 sec. (17.46 ticks)
Sequential b&c:
  Real time             =    0.00 sec. (0.00 ticks)
                          ------------
Total (root+branch&cut) =    0.02 sec. (17.46 ticks)

Solution pool: 5 solutions saved.

MIP - Integer optimal solution:  Objective =  4.5820000000e+03
Solution time =    0.02 sec.  Iterations = 39  Nodes = 0
Deterministic time = 17.46 ticks  (1037.56 ticks/sec)


Incumbent solution written to file '/tmp/tmpWPXqM1.cplex.sol'.

Log started (V12.6.3.0) Fri Apr 20 17:53:35 2018

New value for default parallel thread count: 1

Problem '/tmp/tmpHQ5I8f.pyomo.lp' read.
Read time = 0.03 sec. (2.14 ticks)

Problem name         : /tmp/tmpHQ5I8f.pyomo.lp
Objective sense      : Minimize
Variables            :    1746  [Nneg: 1,  Binary: 1728,  General Integer: 17]
Objective nonzeros   :       1
Linear constraints   :     250  [Less: 124,  Equal: 126]
  Nonzeros           :  155797
  RHS nonzeros       :     109

Variables            : Min LB: 0.000000         Max UB: 1.000000       
Objective nonzeros   : Min   : 1.000000         Max   : 1.000000       
Linear constraints   :
  Nonzeros           : Min   : 1.000000         Max   : 1715.000       
  RHS nonzeros       : Min   : 1.000000         Max   : 1.000000       
Tried aggregator 2 times.
MIP Presolve eliminated 206 rows and 1520 columns.
Aggregator did 15 substitutions.
Reduced MIP has 29 rows, 211 columns, and 435 nonzeros.
Reduced MIP has 210 binaries, 1 generals, 0 SOSs, and 0 indicators.
Presolve time = 0.01 sec. (9.76 ticks)
Found incumbent of value 16875.000000 after 0.01 sec. (13.50 ticks)
Probing time = 0.00 sec. (0.26 ticks)
Tried aggregator 1 time.
Reduced MIP has 29 rows, 211 columns, and 435 nonzeros.
Reduced MIP has 210 binaries, 1 generals, 0 SOSs, and 0 indicators.
Presolve time = 0.00 sec. (0.36 ticks)
Probing time = 0.00 sec. (0.26 ticks)
Clique table members: 14.
MIP emphasis: balance optimality and feasibility.
MIP search method: dynamic search.
Parallel mode: none, using 1 thread.
Root relaxation solution time = 0.00 sec. (0.20 ticks)

        Nodes                                         Cuts/
   Node  Left     Objective  IInf  Best Integer    Best Bound    ItCnt     Gap

*     0+    0                        16875.0000     4582.0000            72.85%
      0     0     4582.0000    12    16875.0000     4582.0000       26   72.85%
*     0+    0                         5336.0000     4582.0000            14.13%
      0     0     4582.0000     5     5336.0000       Cuts: 6       30   14.13%
*     0+    0                         4778.0000     4582.0000             4.10%
      0     0     4582.0000     3     4778.0000       Cuts: 9       37    4.10%
*     0+    0                         4694.0000     4582.0000             2.39%
*     0     0      integral     0     4582.0000    MIRcuts: 2       39    0.00%
      0     0        cutoff           4582.0000     4582.0000       39    0.00%
Elapsed time = 0.02 sec. (17.36 ticks, tree = 0.01 MB, solutions = 5)

Mixed integer rounding cuts applied:  4
Zero-half cuts applied:  4
Gomory fractional cuts applied:  3

Root node processing (before b&c):
  Real time             =    0.02 sec. (17.46 ticks)
Sequential b&c:
  Real time             =    0.00 sec. (0.00 ticks)
                          ------------
Total (root+branch&cut) =    0.02 sec. (17.46 ticks)

Solution pool: 5 solutions saved.

MIP - Integer optimal solution:  Objective =  4.5820000000e+03
Solution time =    0.02 sec.  Iterations = 39  Nodes = 0
Deterministic time = 17.46 ticks  (1047.01 ticks/sec)


Incumbent solution written to file '/tmp/tmpXFSwXv.cplex.sol'.
